565 29 28 27 26 25 24 21 14 15 16 9 10 11 13 12 23 22 31 30 32 33 34 35 36 37 38 40 41 39 42 43 44 47 48 49 46 45 91 92 93 89 90 87 86 85 84 51 50 52 54 53 55 56 58 59 57 83 82 81 80 79 61 60 63 62 78 88 77 76 64 75 74 73 72 65 66 67 68 70 69 124 125 126 127 128 129 130 131 132 133 134 135 136 137 138 139 140 141 151 150 149 152 148 147 153 146 142 143 144 145 158 157 159 156 155 154 164 163 167 166 180 181 179 178 177 176 175 172 170 171 169 168 162 160 161 113 112 114 116 115 110 111 174 173 108 109 107 542 541 543 544 545 546 547 103 104 105 106 117 122 123 71 121 120 119 118 94 97 95 96 98 99 100 102 101 552 553 554 555 556 557 558 559 551 550 560 561 562 563 564 549 548 478 477 479 480 476 475 482 481 483 484 485 486 487 535 536 537 539 538 540 187 188 186 182 183 185 184 194 195 196 197 198 199 200 201 165 203 204 202 208 207 206 205 209 210 211 212 213 214 215 216 217 223 224 222 221 220 218 219 193 192 191 190 226 225 189 227 228 229 230 231 233 232 234 235 236 237 240 239 238 246 247 245 244 243 242 241 248 249 250 251 252 254 253 255 256 257 260 261 259 258 262 263 264 265 266 298 299 300 301 302 508 507 509 510 511 513 512 527 528 529 530 531 532 533 534 488 489 490 491 492 493 524 525 526 523 522 521 520 517 514 515 516 506 504 505 308 307 303 304 306 305 313 309 310 311 451 312 314 315 316 317 318 319 320 321 297 296 295 294 293 270 269 268 267 271 272 273 274 275 292 291 290 289 288 276 277 278 279 282 281 280 287 286 285 284 283 334 335 336 337 338 339 333 332 331 330 340 341 342 343 344 345 346 364 363 362 361 359 360 401 402 403 400 404 405 406 408 407 399 398 397 394 395 396 371 370 369 368 365 367 366 329 328 327 326 325 324 323 322 372 373 374 375 376 377 378 379 380 381 390 392 393 391 389 388 387 386 385 409 384 383 410 411 412 356 355 353 354 357 358 348 347 349 350 351 352 413 414 415 416 417 418 419 420 421 422 423 424 425 382 426 427 428 429 431 430 432 433 434 435 445 444 443 442 446 447 448 449 450 441 440 453 452 499 500 501 502 503 498 519 518 495 494 472 471 470 469 468 467 466 465 464 496 497 461 462 463 571 460 459 458 457 456 455 454 439 436 438 437 3 2 1 4 0 573 572 5 6 7 8 17 18 19 20 568 569 570 474 473 567 566